(set-info :source |printed by MathSAT|)
(declare-fun .x.14 () Int)
(declare-fun .x.15 () Int)
(declare-fun main@%.0.i_0_0 () Int)
(declare-fun .x.16 () Int)
(declare-fun main@%_2_0_0 () Int)
(declare-fun main@%_2_1 () Int)
(declare-fun main@%assume.flag.0_0_0 () Bool)
(declare-fun .x.17 () Bool)
(declare-fun main@%_5_0_0 () Int)
(declare-fun main@%_5_1 () Int)
(declare-fun main@%shadow.mem.4_0_0 () (Array Int Int))
(declare-fun .x.18 () (Array Int Int))
(declare-fun main@%_4_0_0 () Bool)
(declare-fun main@%_4_1 () Bool)
(declare-fun main@%.3.i1_0_0 () Int)
(declare-fun .x.19 () Int)
(declare-fun main@%shadow.mem.3_0_0 () (Array Int Int))
(declare-fun .x.20 () (Array Int Int))
(declare-fun main@%_3_0_0 () Bool)
(declare-fun main@%_3_1 () Bool)
(declare-fun main@%.2.i2_0_0 () Int)
(declare-fun .x.21 () Int)
(declare-fun main@%shadow.mem.2_0_0 () (Array Int Int))
(declare-fun .x.22 () (Array Int Int))
(declare-fun main@%.1.i6_0_0 () Int)
(declare-fun .x.23 () Int)
(declare-fun main@%shadow.mem.1_0_0 () (Array Int Int))
(declare-fun .x.24 () (Array Int Int))
(declare-fun main@%.01.i10_0_0 () Int)
(declare-fun main@%.01.i10_2 () Int)
(declare-fun main@%shadow.mem.0_0_0 () (Array Int Int))
(declare-fun main@%shadow.mem.0_2 () (Array Int Int))
(declare-fun @nd_0_0 () Int)
(declare-fun .x.25 () Int)
(define-fun .def_8 () Int (! .x.14 :next |.x.15|))
(define-fun .def_10 () Int (! main@%.0.i_0_0 :next |.x.16|))
(define-fun .def_12 () Int (! main@%_2_0_0 :next |main@%_2_1|))
(define-fun .def_14 () Bool (! main@%assume.flag.0_0_0 :next |.x.17|))
(define-fun .def_16 () Int (! main@%_5_0_0 :next |main@%_5_1|))
(define-fun .def_18 () (Array Int Int) (! main@%shadow.mem.4_0_0 :next |.x.18|))
(define-fun .def_20 () Bool (! main@%_4_0_0 :next |main@%_4_1|))
(define-fun .def_22 () Int (! main@%.3.i1_0_0 :next |.x.19|))
(define-fun .def_24 () (Array Int Int) (! main@%shadow.mem.3_0_0 :next |.x.20|))
(define-fun .def_26 () Bool (! main@%_3_0_0 :next |main@%_3_1|))
(define-fun .def_28 () Int (! main@%.2.i2_0_0 :next |.x.21|))
(define-fun .def_30 () (Array Int Int) (! main@%shadow.mem.2_0_0 :next |.x.22|))
(define-fun .def_32 () Int (! main@%.1.i6_0_0 :next |.x.23|))
(define-fun .def_34 () (Array Int Int) (! main@%shadow.mem.1_0_0 :next |.x.24|))
(define-fun .def_36 () Int (! main@%.01.i10_0_0 :next |main@%.01.i10_2|))
(define-fun .def_38 () (Array Int Int) (! main@%shadow.mem.0_0_0 :next |main@%shadow.mem.0_2|))
(define-fun .def_40 () Int (! @nd_0_0 :next |.x.25|))
(define-fun .def_391 () Bool (! (= .def_8 0) :init true))
(define-fun .def_410 () Bool (= .def_40 .x.25))
(define-fun .def_388 () Bool (<= main@%_5_1 0))
(define-fun .def_389 () Bool (not .def_388))
(define-fun .def_384 () Bool (<= main@%_2_1 0))
(define-fun .def_385 () Bool (not .def_384))
(define-fun .def_386 () Bool (= main@%_3_1 .def_385))
(define-fun .def_383 () Bool (= main@%_4_1 main@%_3_1))
(define-fun .def_387 () Bool (and .def_383 .def_386))
(define-fun .def_390 () Bool (and .def_387 .def_389))
(define-fun .def_392 () Bool (and .def_390 .def_391))
(define-fun .def_380 () Bool (= main@%.01.i10_2 0))
(define-fun .def_349 () Bool (= .x.15 1))
(define-fun .def_376 () Bool (and main@%_3_1 .def_349))
(define-fun .def_42 () Bool (= .def_10 .x.16))
(define-fun .def_377 () Bool (and .def_42 .def_376))
(define-fun .def_44 () Bool (= .def_14 .x.17))
(define-fun .def_378 () Bool (and .def_44 .def_377))
(define-fun .def_46 () Bool (= .def_18 .x.18))
(define-fun .def_379 () Bool (and .def_46 .def_378))
(define-fun .def_381 () Bool (and .def_379 .def_380))
(define-fun .def_370 () Bool (not main@%_3_1))
(define-fun .def_369 () Bool (= .x.17 main@%_4_1))
(define-fun .def_371 () Bool (and .def_369 .def_370))
(define-fun .def_126 () Bool (= .x.16 0))
(define-fun .def_372 () Bool (and .def_126 .def_371))
(define-fun .def_101 () Bool (= .x.15 5))
(define-fun .def_373 () Bool (and .def_101 .def_372))
(define-fun .def_60 () Bool (= .def_36 main@%.01.i10_2))
(define-fun .def_374 () Bool (and .def_60 .def_373))
(define-fun .def_62 () Bool (= .def_38 main@%shadow.mem.0_2))
(define-fun .def_375 () Bool (and .def_62 .def_374))
(define-fun .def_382 () Bool (or .def_375 .def_381))
(define-fun .def_393 () Bool (and .def_382 .def_392))
(define-fun .def_360 () Int (* (- 1) main@%.01.i10_2))
(define-fun .def_361 () Int (+ .def_36 .def_360))
(define-fun .def_362 () Bool (= .def_361 (- 1)))
(define-fun .def_312 () Int (+ .def_16 .def_36))
(define-fun .def_330 () (Array Int Int) (store .def_38 .def_312 42))
(define-fun .def_357 () Bool (= main@%shadow.mem.0_2 .def_330))
(define-fun .def_318 () Int (* (- 1) .def_36))
(define-fun .def_319 () Int (+ .def_12 .def_318))
(define-fun .def_320 () Bool (<= .def_319 1))
(define-fun .def_355 () Bool (not .def_320))
(define-fun .def_350 () Bool (and .def_42 .def_349))
(define-fun .def_351 () Bool (and .def_44 .def_350))
(define-fun .def_352 () Bool (and .def_46 .def_351))
(define-fun .def_313 () Bool (<= .def_312 0))
(define-fun .def_314 () Bool (not .def_313))
(define-fun .def_65 () Bool (<= .def_16 0))
(define-fun .def_315 () Bool (or .def_65 .def_314))
(define-fun .def_353 () Bool (and .def_315 .def_352))
(define-fun .def_66 () Bool (not .def_65))
(define-fun .def_354 () Bool (and .def_66 .def_353))
(define-fun .def_356 () Bool (and .def_354 .def_355))
(define-fun .def_358 () Bool (and .def_356 .def_357))
(define-fun .def_363 () Bool (and .def_358 .def_362))
(define-fun .def_322 () Bool (= .def_8 1))
(define-fun .def_364 () Bool (and .def_322 .def_363))
(define-fun .def_68 () Bool (= .def_12 main@%_2_1))
(define-fun .def_365 () Bool (and .def_68 .def_364))
(define-fun .def_70 () Bool (= .def_16 main@%_5_1))
(define-fun .def_366 () Bool (and .def_70 .def_365))
(define-fun .def_72 () Bool (= .def_20 main@%_4_1))
(define-fun .def_367 () Bool (and .def_72 .def_366))
(define-fun .def_74 () Bool (= .def_26 main@%_3_1))
(define-fun .def_368 () Bool (and .def_74 .def_367))
(define-fun .def_394 () Bool (or .def_368 .def_393))
(define-fun .def_58 () Bool (= .def_34 .x.24))
(define-fun .def_56 () Bool (= .def_32 .x.23))
(define-fun .def_307 () Bool (and .def_56 .def_58))
(define-fun .def_395 () Bool (and .def_307 .def_394))
(define-fun .def_346 () Bool (= .x.23 0))
(define-fun .def_344 () Bool (= .x.24 .def_330))
(define-fun .def_198 () Bool (and .def_26 .def_42))
(define-fun .def_199 () Bool (and .def_44 .def_198))
(define-fun .def_200 () Bool (and .def_46 .def_199))
(define-fun .def_334 () Bool (and .def_60 .def_200))
(define-fun .def_335 () Bool (and .def_62 .def_334))
(define-fun .def_336 () Bool (and .def_315 .def_335))
(define-fun .def_337 () Bool (and .def_66 .def_336))
(define-fun .def_338 () Bool (and .def_320 .def_337))
(define-fun .def_339 () Bool (and .def_322 .def_338))
(define-fun .def_340 () Bool (and .def_68 .def_339))
(define-fun .def_341 () Bool (and .def_70 .def_340))
(define-fun .def_342 () Bool (and .def_72 .def_341))
(define-fun .def_343 () Bool (and .def_74 .def_342))
(define-fun .def_345 () Bool (and .def_343 .def_344))
(define-fun .def_347 () Bool (and .def_345 .def_346))
(define-fun .def_295 () Bool (= .x.15 2))
(define-fun .def_348 () Bool (and .def_295 .def_347))
(define-fun .def_396 () Bool (or .def_348 .def_395))
(define-fun .def_331 () Bool (= .x.18 .def_330))
(define-fun .def_308 () Bool (and .def_126 .def_307))
(define-fun .def_309 () Bool (and .def_101 .def_308))
(define-fun .def_310 () Bool (and .def_60 .def_309))
(define-fun .def_311 () Bool (and .def_62 .def_310))
(define-fun .def_316 () Bool (and .def_311 .def_315))
(define-fun .def_317 () Bool (and .def_66 .def_316))
(define-fun .def_321 () Bool (and .def_317 .def_320))
(define-fun .def_323 () Bool (and .def_321 .def_322))
(define-fun .def_324 () Bool (and .def_68 .def_323))
(define-fun .def_325 () Bool (and .def_70 .def_324))
(define-fun .def_326 () Bool (and .def_72 .def_325))
(define-fun .def_327 () Bool (and .def_74 .def_326))
(define-fun .def_179 () Bool (not .def_26))
(define-fun .def_328 () Bool (and .def_179 .def_327))
(define-fun .def_332 () Bool (and .def_328 .def_331))
(define-fun .def_136 () Bool (= .x.17 .def_20))
(define-fun .def_333 () Bool (and .def_136 .def_332))
(define-fun .def_397 () Bool (or .def_333 .def_396))
(define-fun .def_302 () Int (* (- 1) .x.23))
(define-fun .def_303 () Int (+ .def_32 .def_302))
(define-fun .def_304 () Bool (= .def_303 (- 1)))
(define-fun .def_255 () Int (+ .def_16 .def_32))
(define-fun .def_268 () (Array Int Int) (store .def_34 .def_255 43))
(define-fun .def_300 () Bool (= .x.24 .def_268))
(define-fun .def_260 () Int (* (- 1) .def_32))
(define-fun .def_261 () Int (+ .def_12 .def_260))
(define-fun .def_262 () Bool (<= .def_261 1))
(define-fun .def_298 () Bool (not .def_262))
(define-fun .def_154 () Bool (and .def_42 .def_44))
(define-fun .def_155 () Bool (and .def_46 .def_154))
(define-fun .def_288 () Bool (and .def_60 .def_155))
(define-fun .def_289 () Bool (and .def_62 .def_288))
(define-fun .def_290 () Bool (and .def_66 .def_289))
(define-fun .def_291 () Bool (and .def_68 .def_290))
(define-fun .def_292 () Bool (and .def_70 .def_291))
(define-fun .def_293 () Bool (and .def_72 .def_292))
(define-fun .def_294 () Bool (and .def_74 .def_293))
(define-fun .def_296 () Bool (and .def_294 .def_295))
(define-fun .def_256 () Bool (<= .def_255 0))
(define-fun .def_257 () Bool (not .def_256))
(define-fun .def_258 () Bool (or .def_65 .def_257))
(define-fun .def_297 () Bool (and .def_258 .def_296))
(define-fun .def_299 () Bool (and .def_297 .def_298))
(define-fun .def_301 () Bool (and .def_299 .def_300))
(define-fun .def_305 () Bool (and .def_301 .def_304))
(define-fun .def_265 () Bool (= .def_8 2))
(define-fun .def_306 () Bool (and .def_265 .def_305))
(define-fun .def_398 () Bool (or .def_306 .def_397))
(define-fun .def_54 () Bool (= .def_30 .x.22))
(define-fun .def_52 () Bool (= .def_28 .x.21))
(define-fun .def_241 () Bool (and .def_52 .def_54))
(define-fun .def_399 () Bool (and .def_241 .def_398))
(define-fun .def_285 () Bool (= .x.21 0))
(define-fun .def_283 () Bool (= .x.22 .def_268))
(define-fun .def_271 () Bool (and .def_56 .def_200))
(define-fun .def_272 () Bool (and .def_58 .def_271))
(define-fun .def_273 () Bool (and .def_60 .def_272))
(define-fun .def_274 () Bool (and .def_62 .def_273))
(define-fun .def_275 () Bool (and .def_66 .def_274))
(define-fun .def_276 () Bool (and .def_68 .def_275))
(define-fun .def_277 () Bool (and .def_70 .def_276))
(define-fun .def_278 () Bool (and .def_72 .def_277))
(define-fun .def_279 () Bool (and .def_74 .def_278))
(define-fun .def_280 () Bool (and .def_258 .def_279))
(define-fun .def_281 () Bool (and .def_262 .def_280))
(define-fun .def_282 () Bool (and .def_265 .def_281))
(define-fun .def_284 () Bool (and .def_282 .def_283))
(define-fun .def_286 () Bool (and .def_284 .def_285))
(define-fun .def_229 () Bool (= .x.15 3))
(define-fun .def_287 () Bool (and .def_229 .def_286))
(define-fun .def_400 () Bool (or .def_287 .def_399))
(define-fun .def_269 () Bool (= .x.18 .def_268))
(define-fun .def_242 () Bool (and .def_56 .def_241))
(define-fun .def_243 () Bool (and .def_58 .def_242))
(define-fun .def_244 () Bool (and .def_126 .def_243))
(define-fun .def_245 () Bool (and .def_101 .def_244))
(define-fun .def_246 () Bool (and .def_60 .def_245))
(define-fun .def_247 () Bool (and .def_62 .def_246))
(define-fun .def_248 () Bool (and .def_66 .def_247))
(define-fun .def_249 () Bool (and .def_68 .def_248))
(define-fun .def_250 () Bool (and .def_70 .def_249))
(define-fun .def_251 () Bool (and .def_72 .def_250))
(define-fun .def_252 () Bool (and .def_74 .def_251))
(define-fun .def_253 () Bool (and .def_179 .def_252))
(define-fun .def_254 () Bool (and .def_136 .def_253))
(define-fun .def_259 () Bool (and .def_254 .def_258))
(define-fun .def_263 () Bool (and .def_259 .def_262))
(define-fun .def_266 () Bool (and .def_263 .def_265))
(define-fun .def_270 () Bool (and .def_266 .def_269))
(define-fun .def_401 () Bool (or .def_270 .def_400))
(define-fun .def_236 () Int (* (- 1) .x.21))
(define-fun .def_237 () Int (+ .def_28 .def_236))
(define-fun .def_238 () Bool (= .def_237 (- 1)))
(define-fun .def_182 () Int (+ .def_16 .def_28))
(define-fun .def_195 () (Array Int Int) (store .def_30 .def_182 44))
(define-fun .def_234 () Bool (= .x.22 .def_195))
(define-fun .def_187 () Int (* (- 1) .def_28))
(define-fun .def_188 () Int (+ .def_12 .def_187))
(define-fun .def_189 () Bool (<= .def_188 1))
(define-fun .def_232 () Bool (not .def_189))
(define-fun .def_220 () Bool (and .def_56 .def_155))
(define-fun .def_221 () Bool (and .def_58 .def_220))
(define-fun .def_222 () Bool (and .def_60 .def_221))
(define-fun .def_223 () Bool (and .def_62 .def_222))
(define-fun .def_224 () Bool (and .def_66 .def_223))
(define-fun .def_225 () Bool (and .def_68 .def_224))
(define-fun .def_226 () Bool (and .def_70 .def_225))
(define-fun .def_227 () Bool (and .def_72 .def_226))
(define-fun .def_228 () Bool (and .def_74 .def_227))
(define-fun .def_230 () Bool (and .def_228 .def_229))
(define-fun .def_183 () Bool (<= .def_182 0))
(define-fun .def_184 () Bool (not .def_183))
(define-fun .def_185 () Bool (or .def_65 .def_184))
(define-fun .def_231 () Bool (and .def_185 .def_230))
(define-fun .def_233 () Bool (and .def_231 .def_232))
(define-fun .def_235 () Bool (and .def_233 .def_234))
(define-fun .def_239 () Bool (and .def_235 .def_238))
(define-fun .def_192 () Bool (= .def_8 3))
(define-fun .def_240 () Bool (and .def_192 .def_239))
(define-fun .def_402 () Bool (or .def_240 .def_401))
(define-fun .def_50 () Bool (= .def_24 .x.20))
(define-fun .def_48 () Bool (= .def_22 .x.19))
(define-fun .def_121 () Bool (and .def_48 .def_50))
(define-fun .def_403 () Bool (and .def_121 .def_402))
(define-fun .def_217 () Bool (= .x.19 0))
(define-fun .def_215 () Bool (= .x.20 .def_195))
(define-fun .def_201 () Bool (and .def_52 .def_200))
(define-fun .def_202 () Bool (and .def_54 .def_201))
(define-fun .def_203 () Bool (and .def_56 .def_202))
(define-fun .def_204 () Bool (and .def_58 .def_203))
(define-fun .def_205 () Bool (and .def_60 .def_204))
(define-fun .def_206 () Bool (and .def_62 .def_205))
(define-fun .def_207 () Bool (and .def_66 .def_206))
(define-fun .def_208 () Bool (and .def_68 .def_207))
(define-fun .def_209 () Bool (and .def_70 .def_208))
(define-fun .def_210 () Bool (and .def_72 .def_209))
(define-fun .def_211 () Bool (and .def_74 .def_210))
(define-fun .def_212 () Bool (and .def_185 .def_211))
(define-fun .def_213 () Bool (and .def_189 .def_212))
(define-fun .def_214 () Bool (and .def_192 .def_213))
(define-fun .def_216 () Bool (and .def_214 .def_215))
(define-fun .def_218 () Bool (and .def_216 .def_217))
(define-fun .def_167 () Bool (= .x.15 4))
(define-fun .def_219 () Bool (and .def_167 .def_218))
(define-fun .def_404 () Bool (or .def_219 .def_403))
(define-fun .def_196 () Bool (= .x.18 .def_195))
(define-fun .def_122 () Bool (and .def_52 .def_121))
(define-fun .def_123 () Bool (and .def_54 .def_122))
(define-fun .def_124 () Bool (and .def_56 .def_123))
(define-fun .def_125 () Bool (and .def_58 .def_124))
(define-fun .def_127 () Bool (and .def_125 .def_126))
(define-fun .def_128 () Bool (and .def_101 .def_127))
(define-fun .def_129 () Bool (and .def_60 .def_128))
(define-fun .def_130 () Bool (and .def_62 .def_129))
(define-fun .def_131 () Bool (and .def_66 .def_130))
(define-fun .def_132 () Bool (and .def_68 .def_131))
(define-fun .def_133 () Bool (and .def_70 .def_132))
(define-fun .def_134 () Bool (and .def_72 .def_133))
(define-fun .def_135 () Bool (and .def_74 .def_134))
(define-fun .def_180 () Bool (and .def_135 .def_179))
(define-fun .def_181 () Bool (and .def_136 .def_180))
(define-fun .def_186 () Bool (and .def_181 .def_185))
(define-fun .def_190 () Bool (and .def_186 .def_189))
(define-fun .def_193 () Bool (and .def_190 .def_192))
(define-fun .def_197 () Bool (and .def_193 .def_196))
(define-fun .def_405 () Bool (or .def_197 .def_404))
(define-fun .def_174 () Int (* (- 1) .x.19))
(define-fun .def_175 () Int (+ .def_22 .def_174))
(define-fun .def_176 () Bool (= .def_175 (- 1)))
(define-fun .def_138 () Int (+ .def_16 .def_22))
(define-fun .def_151 () (Array Int Int) (store .def_24 .def_138 45))
(define-fun .def_172 () Bool (= .x.20 .def_151))
(define-fun .def_144 () Int (* (- 1) .def_22))
(define-fun .def_145 () Int (+ .def_12 .def_144))
(define-fun .def_146 () Bool (<= .def_145 1))
(define-fun .def_170 () Bool (not .def_146))
(define-fun .def_156 () Bool (and .def_52 .def_155))
(define-fun .def_157 () Bool (and .def_54 .def_156))
(define-fun .def_158 () Bool (and .def_56 .def_157))
(define-fun .def_159 () Bool (and .def_58 .def_158))
(define-fun .def_160 () Bool (and .def_60 .def_159))
(define-fun .def_161 () Bool (and .def_62 .def_160))
(define-fun .def_162 () Bool (and .def_66 .def_161))
(define-fun .def_163 () Bool (and .def_68 .def_162))
(define-fun .def_164 () Bool (and .def_70 .def_163))
(define-fun .def_165 () Bool (and .def_72 .def_164))
(define-fun .def_166 () Bool (and .def_74 .def_165))
(define-fun .def_168 () Bool (and .def_166 .def_167))
(define-fun .def_139 () Bool (<= .def_138 0))
(define-fun .def_140 () Bool (not .def_139))
(define-fun .def_141 () Bool (or .def_65 .def_140))
(define-fun .def_169 () Bool (and .def_141 .def_168))
(define-fun .def_171 () Bool (and .def_169 .def_170))
(define-fun .def_173 () Bool (and .def_171 .def_172))
(define-fun .def_177 () Bool (and .def_173 .def_176))
(define-fun .def_149 () Bool (= .def_8 4))
(define-fun .def_178 () Bool (and .def_149 .def_177))
(define-fun .def_406 () Bool (or .def_178 .def_405))
(define-fun .def_152 () Bool (= .x.18 .def_151))
(define-fun .def_137 () Bool (and .def_135 .def_136))
(define-fun .def_142 () Bool (and .def_137 .def_141))
(define-fun .def_147 () Bool (and .def_142 .def_146))
(define-fun .def_150 () Bool (and .def_147 .def_149))
(define-fun .def_153 () Bool (and .def_150 .def_152))
(define-fun .def_407 () Bool (or .def_153 .def_406))
(define-fun .def_116 () Int (* (- 1) .x.16))
(define-fun .def_117 () Int (+ .def_10 .def_116))
(define-fun .def_118 () Bool (= .def_117 (- 1)))
(define-fun .def_81 () Bool (<= .def_12 .def_10))
(define-fun .def_82 () Bool (not .def_81))
(define-fun .def_112 () Bool (and .def_14 .def_82))
(define-fun .def_113 () Bool (= .x.17 .def_112))
(define-fun .def_95 () Bool (and .def_46 .def_48))
(define-fun .def_96 () Bool (and .def_50 .def_95))
(define-fun .def_97 () Bool (and .def_52 .def_96))
(define-fun .def_98 () Bool (and .def_54 .def_97))
(define-fun .def_99 () Bool (and .def_56 .def_98))
(define-fun .def_100 () Bool (and .def_58 .def_99))
(define-fun .def_102 () Bool (and .def_100 .def_101))
(define-fun .def_103 () Bool (and .def_60 .def_102))
(define-fun .def_104 () Bool (and .def_62 .def_103))
(define-fun .def_105 () Bool (and .def_66 .def_104))
(define-fun .def_106 () Bool (and .def_68 .def_105))
(define-fun .def_107 () Bool (and .def_70 .def_106))
(define-fun .def_108 () Bool (and .def_72 .def_107))
(define-fun .def_109 () Bool (and .def_74 .def_108))
(define-fun .def_76 () Int (+ .def_10 .def_16))
(define-fun .def_77 () Bool (<= .def_76 0))
(define-fun .def_78 () Bool (not .def_77))
(define-fun .def_79 () Bool (or .def_65 .def_78))
(define-fun .def_110 () Bool (and .def_79 .def_109))
(define-fun .def_88 () Int (select .def_18 .def_76))
(define-fun .def_89 () Bool (= .def_88 45))
(define-fun .def_111 () Bool (and .def_89 .def_110))
(define-fun .def_114 () Bool (and .def_111 .def_113))
(define-fun .def_119 () Bool (and .def_114 .def_118))
(define-fun .def_85 () Bool (= .def_8 5))
(define-fun .def_120 () Bool (and .def_85 .def_119))
(define-fun .def_408 () Bool (or .def_120 .def_407))
(define-fun .def_93 () Bool (= .x.15 6))
(define-fun .def_90 () Bool (not .def_89))
(define-fun .def_43 () Bool (and .def_14 .def_42))
(define-fun .def_45 () Bool (and .def_43 .def_44))
(define-fun .def_47 () Bool (and .def_45 .def_46))
(define-fun .def_49 () Bool (and .def_47 .def_48))
(define-fun .def_51 () Bool (and .def_49 .def_50))
(define-fun .def_53 () Bool (and .def_51 .def_52))
(define-fun .def_55 () Bool (and .def_53 .def_54))
(define-fun .def_57 () Bool (and .def_55 .def_56))
(define-fun .def_59 () Bool (and .def_57 .def_58))
(define-fun .def_61 () Bool (and .def_59 .def_60))
(define-fun .def_63 () Bool (and .def_61 .def_62))
(define-fun .def_67 () Bool (and .def_63 .def_66))
(define-fun .def_69 () Bool (and .def_67 .def_68))
(define-fun .def_71 () Bool (and .def_69 .def_70))
(define-fun .def_73 () Bool (and .def_71 .def_72))
(define-fun .def_75 () Bool (and .def_73 .def_74))
(define-fun .def_80 () Bool (and .def_75 .def_79))
(define-fun .def_83 () Bool (and .def_80 .def_82))
(define-fun .def_86 () Bool (and .def_83 .def_85))
(define-fun .def_91 () Bool (and .def_86 .def_90))
(define-fun .def_94 () Bool (and .def_91 .def_93))
(define-fun .def_409 () Bool (or .def_94 .def_408))
(define-fun .def_411 () Bool (! (and .def_409 .def_410) :trans true))
(define-fun .def_412 () Bool (= .def_8 6))
(define-fun .def_413 () Bool (! (not .def_412) :invar-property 0))
(assert true)
